5 5
2 93 3 66 4 82 0 92 1 42
4 71 2 75 0 71 3 43 1 88
4 55 3 56 0 79 1 31 2 83
3 56 1 74 0 48 4 52 2 72
3 1 1 2 0 93 4 42 2 74
-1
0 1 2 4 5
0 1 5
0 1 3 4 5
0 1 2 5
0 2 5
-2
144 243 516 592
88 408
78 262 230 335
81 151 479
3 282

454 2
22 12 7 17 3
21 16 13 9 4
0 6 24 14 19
20 15 11 1 8
10 5 23 2 18
